c Random 8-CNF over 20 variables and 40 clauses
c Generated with `cnfgen`
c (C) 2012-2016 Massimo Lauria <lauria.massimo@gmail.com>
c https://massimolauria.github.io/cnfgen
c
c COMMAND LINE: cnfgen --output tmp-8-20-40.dimacs --output-format dimacs randkcnf 8 20 40
c
c sdimacs generated by gen-sdimacs
c
p cnf 20 40
r 0.5 1 2 3 4 5 6 7 8 9 10 0
e  11 12 13 14 15 16 17 18 19 20 0
1 -3 4 8 9 -11 -13 19 0
-1 -2 4 -7 9 10 -13 19 0
-1 3 -7 11 13 14 15 -20 0
-1 -5 -8 9 12 14 18 -20 0
-1 -2 7 -9 10 16 -18 20 0
-9 -11 12 -13 -14 -15 16 -17 0
-1 3 8 11 17 -18 19 -20 0
5 -9 10 -13 -14 -17 18 20 0
1 5 -6 -9 -10 13 -14 19 0
-4 6 9 10 -11 -14 -16 20 0
-2 -3 5 6 8 15 -16 -19 0
4 -6 -9 11 14 15 -17 -18 0
5 -7 -8 9 -10 12 14 15 0
-3 6 -10 11 -12 17 18 20 0
-3 4 -10 13 14 15 16 19 0
-2 -8 -9 12 -14 15 -17 18 0
-3 4 6 -7 -9 12 15 -18 0
3 -6 8 10 12 -13 -18 -19 0
-2 3 -5 -7 -11 13 14 -20 0
-1 -2 -4 -8 9 -11 15 17 0
2 3 -12 13 14 16 18 -19 0
4 -5 -6 9 13 -15 16 -19 0
-1 -5 9 11 -13 -14 16 19 0
1 3 -6 -10 13 17 18 -19 0
1 2 -5 -6 -7 8 -14 -17 0
1 4 -7 -11 12 14 15 -20 0
-4 -5 -7 8 -12 13 -17 -18 0
1 5 7 -8 11 -13 15 18 0
1 -2 -3 4 -6 -11 -12 18 0
-1 4 -5 -9 10 12 15 18 0
-3 -4 6 10 -11 16 -18 20 0
2 -4 5 -9 -12 -15 19 20 0
-1 4 6 -7 8 -9 10 16 0
2 -7 -8 -9 12 -16 17 20 0
-1 4 -7 12 16 17 19 20 0
3 -5 8 -14 -15 -18 -19 20 0
4 5 -7 9 14 -15 16 -18 0
-2 10 -11 13 -14 18 19 -20 0
2 -3 4 7 13 16 19 -20 0
-2 3 7 -11 12 -17 -18 19 0
